49
26
0 27 29 31 34 38 42 43 46 47
1 26 27 28 29 30 31 33 34 37 38 41 42 43 46 47
2 28 29 31 32 33 34 38 41 42 45 47
3 27 31 34 35 38 39 40 41 42 45 46
4 29 32 33 34 38 40 41 42 45 46 47 48
5 27 28 29 30 31 34 38 47 48
6 27 29 30 31 35 39 40 41 43 45 46 48
7 29 30 32 34 37 38 39 42 43 46 47 48
8 30 31 37 38 42 47 48
9 26 29 31 32 35 38 40 42 43 45 47 48
10 27 30 31 37 38 40 41 42 43 45 46 47
11 27 30 32 34 37 38 46 48
12 28 34 37 38 39 41 47 48
13 30 39 40 42 43 45 48
14 27 29 30 31 34 36 44 46 47
15 27 29 30 31 34 43 44
16 26 27 28 29 30 34 35 36 40 42 43 45 47 48
17 28 32 33 34 35 38 42 45 48
18 26 28 29 41 44 45
19 27 28 36 37 40 42 48
20 34 39 44
21 27 28 29 37 41 43 44
22 37 45
23 39
24 31
25 27 40
